Max time = 2000.0
Tried aggregator 1 time.
MIP Presolve eliminated 959 rows and 0 columns.
MIP Presolve modified 62 coefficients.
Reduced MIP has 714 rows, 3478 columns, and 17330 nonzeros.
Reduced MIP has 3478 binaries, 0 generals, 0 SOSs, and 0 indicators.
Presolve time = 0.11 sec. (12.80 ticks)
Probing time = 0.14 sec. (3.04 ticks)
Tried aggregator 1 time.
Reduced MIP has 714 rows, 3478 columns, and 17330 nonzeros.
Reduced MIP has 3478 binaries, 0 generals, 0 SOSs, and 0 indicators.
Presolve time = 0.04 sec. (7.90 ticks)
Probing time = 0.13 sec. (2.99 ticks)
Clique table members: 4272.
MIP emphasis: balance optimality and feasibility.
MIP search method: dynamic search.
Parallel mode: deterministic, using up to 4 threads.
Root relaxation solution time = 0.58 sec. (159.07 ticks)

        Nodes                                         Cuts/
   Node  Left     Objective  IInf  Best Integer    Best Bound    ItCnt     Gap

      0     0       12.0000   654                     12.0000        0         
      0     2       12.0000   457                     12.0000     1641         
Elapsed time = 12.35 sec. (2495.56 ticks, tree = 0.01 MB, solutions = 0)
      1     3       12.0000   485                     12.0000     3974         
      5     7       12.0000   479                     12.0000     7530         
     11     5       12.0000   464                     12.0000     7301         
     26    18       12.0000   462                     12.0000    17896         
     43    37       12.0000   433                     12.0000    29045         
     75    51       12.0000   298                     12.0000    37141         
     99    58    infeasible                           12.0000    40916         
    136    91       12.3333   317                     12.0000    58166         
    167   102       12.0000   273                     12.0000    62173         
*   241+  125                           16.0000       12.0000            25.00%
*   242   120      integral     0       14.0000       12.0000    69647   14.29%
    349   158       12.4000   349       14.0000       12.0000    87507   14.29%
Elapsed time = 31.81 sec. (5889.54 ticks, tree = 0.21 MB, solutions = 2)
    823   265    infeasible             14.0000       12.0000   163501   14.29%
   1625   298    infeasible             14.0000       12.0000   231131   14.29%
   2460   332    infeasible             14.0000       12.0000   297468   14.29%
   3272   335    infeasible             14.0000       12.0000   380537   14.29%
   4074   316       12.0000   167       14.0000       12.0000   439819   14.29%
   4782   323    infeasible             14.0000       12.0000   515710   14.29%
   5406   340    infeasible             14.0000       12.0000   578432   14.29%
   6028   374    infeasible             14.0000       12.0000   658725   14.29%
*  6171+    0                           12.0000       12.0000             0.00%
   6171     0        cutoff             12.0000       12.0000   685209    0.00%

Root node processing (before b&c):
  Real time             =   12.23 sec. (2477.27 ticks)
Parallel b&c, 4 threads:
  Real time             =   80.62 sec. (12511.32 ticks)
  Sync time (average)   =   11.99 sec.
  Wait time (average)   =    0.01 sec.
                          ------------
Total (root+branch&cut) =   92.85 sec. (14988.59 ticks)
P#1 = 0.9999999999999987
P#15 = 1.0
P#17 = 1.0
P#19 = 1.0
P#22 = 1.0
P#26 = 1.0000000000000013
P#37 = 1.0
P#41 = 1.0
P#44 = 1.0
P#46 = 1.0
P#48 = 1.0
P#62 = 1.0
P#47 = 1.0
P#16 = 1.0
X#1#62 = 1.0
X#2#46 = 1.0
X#3#48 = 1.0
X#4#44 = 1.0
X#5#41 = 1.0
X#6#37 = 1.0
X#7#47 = 1.0
X#8#26 = 1.0000000000000013
X#9#1 = 1.0
X#10#17 = 0.9999999999999999
X#11#19 = 1.0
X#12#16 = 1.0
X#13#15 = 1.0
X#14#22 = 1.0000000000000013
L#1#1 = 1.0
L#1#3 = 1.0
L#1#4 = 1.0
L#1#6 = 1.0
L#1#8 = 1.0
L#1#10 = 1.0
L#1#12 = 1.0
L#2#1 = 1.0
L#2#3 = 1.0
L#2#5 = 1.0
L#2#7 = 1.0
L#2#9 = 1.0
L#2#12 = 1.0
L#3#1 = 1.0
L#3#3 = 1.0
L#3#5 = 1.0
L#3#7 = 1.0
L#3#9 = 1.0
L#3#11 = 1.0
L#3#12 = 1.0
L#4#1 = 1.0
L#4#3 = 1.0
L#4#5 = 1.0
L#4#7 = 1.0
L#4#10 = 1.0
L#4#12 = 1.0
L#5#1 = 1.0
L#5#3 = 1.0
L#5#5 = 1.0
L#5#8 = 1.0
L#5#10 = 1.0
L#5#12 = 1.0
L#6#1 = 1.0
L#6#3 = 1.0
L#6#6 = 1.0
L#6#8 = 1.0
L#6#10 = 1.0
L#6#12 = 1.0
L#7#1 = 1.0
L#7#3 = 1.0
L#7#5 = 1.0
L#7#7 = 1.0
L#7#9 = 1.0
L#7#11 = 1.0
L#7#13 = 1.0
L#8#2 = 1.0
L#8#4 = 0.9999999999999993
L#8#5 = 1.0
L#8#7 = 0.9999999999999984
L#8#9 = 0.9999999999999993
L#8#11 = 1.0
L#8#13 = 0.9999999999999998
L#9#2 = 1.0
L#9#5 = 1.0
L#9#7 = 1.0
L#9#9 = 1.0
L#9#11 = 1.0000000000000007
L#9#13 = 1.0
L#10#2 = 1.0
L#10#4 = 0.9999999999999967
L#10#6 = 0.9999999999999982
L#10#8 = 1.0
L#10#10 = 1.0000000000000009
L#10#11 = 0.9999999999999999
L#10#13 = 0.9999999999999999
L#11#2 = 1.0
L#11#4 = 1.0
L#11#6 = 1.0
L#11#8 = 1.0
L#11#9 = 1.0
L#11#11 = 1.0
L#11#13 = 1.0
L#12#2 = 1.0
L#12#4 = 1.0
L#12#6 = 1.0
L#12#8 = 1.0
L#12#10 = 1.0
L#12#12 = 1.0
L#13#2 = 1.0
L#13#4 = 1.0
L#13#6 = 1.0
L#13#8 = 1.0
L#13#10 = 1.0
L#13#13 = 1.0
L#14#2 = 1.0
L#14#4 = 1.0000000000000018
L#14#6 = 1.0
L#14#7 = 1.0
L#14#9 = 1.0
L#14#11 = 1.0
L#14#13 = 1.0000000000000013
F#1#14#1 = 1.0
F#1#10#3 = 1.0
F#1#6#4 = 1.0
F#1#3#6 = 1.0
F#1#2#8 = 1.0
F#1#7#10 = 1.0000000000000024
F#1#11#12 = 1.0
F#2#13#1 = 1.0
F#2#8#3 = 0.9999999999999993
F#2#12#5 = 1.0
F#2#5#7 = 1.0
F#2#6#9 = 1.0
F#2#7#12 = 1.0000000000000007
F#3#12#1 = 1.0
F#3#11#3 = 1.0
F#3#10#5 = 1.0
F#3#6#7 = 1.0
F#3#4#9 = 1.0
F#3#2#11 = 0.9999999999999982
F#3#9#12 = 1.0
F#4#11#1 = 1.0
F#4#9#3 = 1.0
F#4#6#5 = 1.0000000000000022
F#4#1#7 = 1.0000000000000022
F#4#2#10 = 1.0
F#4#14#12 = 1.0
F#5#10#1 = 1.0
F#5#13#3 = 1.0
F#5#1#5 = 1.0
F#5#4#8 = 1.0
F#5#3#10 = 1.0
F#5#8#12 = 1.0
F#6#9#1 = 1.0
F#6#12#3 = 1.0
F#6#5#6 = 1.0
F#6#7#8 = 1.0
F#6#8#10 = 1.0
F#6#10#12 = 0.9999999999999991
F#7#8#1 = 1.0
F#7#14#3 = 1.0
F#7#13#5 = 1.0
F#7#12#7 = 1.0
F#7#5#9 = 1.0000000000000007
F#7#4#11 = 1.0000000000000007
F#7#3#13 = 1.0
F#8#3#2 = 1.0
F#8#9#4 = 0.9999999999999993
F#8#14#5 = 1.0
F#8#11#7 = 0.9999999999999984
F#8#10#9 = 0.9999999999999993
F#8#1#11 = 1.0
F#8#4#13 = 0.9999999999999998
F#9#7#2 = 1.0
F#9#11#5 = 1.0
F#9#13#7 = 1.0
F#9#1#9 = 1.0
F#9#5#11 = 1.0000000000000007
F#9#2#13 = 1.0
F#10#4#2 = 1.000000000000002
F#10#7#4 = 0.9999999999999967
F#10#2#6 = 0.9999999999999982
F#10#9#8 = 1.0
F#10#11#10 = 1.0000000000000009
F#10#13#11 = 0.9999999999999999
F#10#12#13 = 1.000000000000003
F#11#5#2 = 1.0
F#11#2#4 = 0.9999999999999976
F#11#7#6 = 0.9999999999999984
F#11#14#8 = 1.0
F#11#13#9 = 0.9999999999999994
F#11#12#11 = 1.0
F#11#6#13 = 1.0
F#12#1#2 = 1.0
F#12#5#4 = 1.0
F#12#4#6 = 1.0
F#12#8#8 = 1.0000000000000007
F#12#9#10 = 1.0
F#12#13#12 = 0.9999999999999991
F#13#6#2 = 1.0
F#13#4#4 = 1.0
F#13#8#6 = 0.9999999999999984
F#13#3#8 = 1.0000000000000007
F#13#14#10 = 1.0
F#13#1#13 = 0.9999999999999999
F#14#2#2 = 1.0
F#14#3#4 = 1.0000000000000018
F#14#9#6 = 1.0
F#14#10#7 = 1.0
F#14#12#9 = 1.0
F#14#6#11 = 1.0
F#14#5#13 = 1.0